(set-logic ALL)
(set-option :produce-models true)
(declare-sort BoundSet 0)
(declare-sort UnboundSet 0)
(set-option :finite-model-find true)
(declare-fun IsWearingCap (BoundSet) Bool)
(declare-fun IsNotWearingShirt (BoundSet) Bool)
(declare-fun IsLayingOn (BoundSet BoundSet) Bool)
(declare-fun IsRelaxing (BoundSet) Bool)
(declare-fun IsOn (BoundSet BoundSet) Bool)
(assert (not (=> (exists ((a BoundSet)) (exists ((c BoundSet)) (and (IsWearingCap a) (and (IsNotWearingShirt a) (IsLayingOn c a))))) (exists ((d BoundSet)) (exists ((e BoundSet)) (and (IsRelaxing d) (IsOn d e)))))))
(check-sat)
(get-model)